(set-logic HORN)
(declare-fun !inv2 (Int (Array Int Int) Int Int Int Int ) Bool)
(declare-fun !inv0 (Int (Array Int Int) Int Int ) Bool)
(declare-fun !inv1 (Int (Array Int Int) Int Int Int ) Bool)
(declare-fun !inv4 (Int (Array Int Int) Int Int Int Int Int Int ) Bool)
(declare-fun !inv3 (Int (Array Int Int) Int Int Int Int Int ) Bool)
(assert (forall ((volArray@5 (Array Int Int))(CELLCOUNT_5@0 Int)(volArray@0 (Array Int Int))(.volArray!size@0 Int)(i@0 Int)(j@0 Int)(k@0 Int)(volArray@1 (Array Int Int))(volArray@2 (Array Int Int))(volArray@3 (Array Int Int))(volArray@4 (Array Int Int))(k@1 Int)) (=> (and (!inv2 |CELLCOUNT_5@0| |volArray@5| |.volArray!size@0| |i@0| |j@0| |k@0|) (= |volArray@1| (store |volArray@0| (- (* |k@0| 5) 5) (select |volArray@0| (- (* |k@0| 5) 5)))) (= |volArray@2| (store |volArray@1| (- (* |k@0| 5) 4) (select |volArray@1| (- (* |k@0| 5) 4)))) (= |volArray@3| (store |volArray@2| (- (* |k@0| 5) 2) (select |volArray@2| (- (* |k@0| 5) 2)))) (= |volArray@4| (store |volArray@3| (- (* |k@0| 5) 1) (select |volArray@3| (- (* |k@0| 5) 1)))) (= |k@1| (+ |k@0| 1)) (<= |k@0| |CELLCOUNT_5@0|) (>= 7 2) (= |volArray@0| (store |volArray@5| (- (* |k@0| 5) 3) 7))) (!inv2 |CELLCOUNT_5@0| |volArray@4| |.volArray!size@0| |i@0| |j@0| |k@1|))))
(assert (forall ((volArray@5 (Array Int Int))(CELLCOUNT_5@0 Int)(volArray@0 (Array Int Int))(.volArray!size@0 Int)(i@0 Int)(j@0 Int)(k@0 Int)(volArray@1 (Array Int Int))(volArray@2 (Array Int Int))(volArray@3 (Array Int Int))(volArray@4 (Array Int Int))(k@1 Int)) (=> (and (!inv2 |CELLCOUNT_5@0| |volArray@5| |.volArray!size@0| |i@0| |j@0| |k@0|) (= |volArray@1| (store |volArray@0| (- (* |k@0| 5) 5) (select |volArray@0| (- (* |k@0| 5) 5)))) (= |volArray@2| (store |volArray@1| (- (* |k@0| 5) 4) (select |volArray@1| (- (* |k@0| 5) 4)))) (= |volArray@3| (store |volArray@2| (- (* |k@0| 5) 2) (select |volArray@2| (- (* |k@0| 5) 2)))) (= |volArray@4| (store |volArray@3| (- (* |k@0| 5) 1) (select |volArray@3| (- (* |k@0| 5) 1)))) (= |k@1| (+ |k@0| 1)) (<= |k@0| |CELLCOUNT_5@0|) (not (>= 7 2)) (= |volArray@0| (store |volArray@5| (- (* |k@0| 5) 3) 0))) (!inv2 |CELLCOUNT_5@0| |volArray@4| |.volArray!size@0| |i@0| |j@0| |k@1|))))
(assert (forall ((volArray@5 (Array Int Int))(CELLCOUNT_5@0 Int)(volArray@0 (Array Int Int))(.volArray!size@0 Int)(i@0 Int)(volArray@1 (Array Int Int))(volArray@2 (Array Int Int))(volArray@3 (Array Int Int))(volArray@4 (Array Int Int))(i@1 Int)) (=> (and (!inv0 |CELLCOUNT_5@0| |volArray@5| |.volArray!size@0| |i@0|) (= |volArray@1| (store |volArray@0| (- (* |i@0| 5) 4) (select |volArray@0| (- (* |i@0| 5) 4)))) (= |volArray@2| (store |volArray@1| (- (* |i@0| 5) 3) (select |volArray@1| (- (* |i@0| 5) 3)))) (= |volArray@3| (store |volArray@2| (- (* |i@0| 5) 2) (select |volArray@2| (- (* |i@0| 5) 2)))) (= |volArray@4| (store |volArray@3| (- (* |i@0| 5) 1) (select |volArray@3| (- (* |i@0| 5) 1)))) (= |i@1| (+ |i@0| 1)) (<= |i@0| |CELLCOUNT_5@0|) (>= 8 2) (= |volArray@0| (store |volArray@5| (- (* |i@0| 5) 5) 8))) (!inv0 |CELLCOUNT_5@0| |volArray@4| |.volArray!size@0| |i@1|))))
(assert (forall ((volArray@5 (Array Int Int))(CELLCOUNT_5@0 Int)(volArray@0 (Array Int Int))(.volArray!size@0 Int)(i@0 Int)(volArray@1 (Array Int Int))(volArray@2 (Array Int Int))(volArray@3 (Array Int Int))(volArray@4 (Array Int Int))(i@1 Int)) (=> (and (!inv0 |CELLCOUNT_5@0| |volArray@5| |.volArray!size@0| |i@0|) (= |volArray@1| (store |volArray@0| (- (* |i@0| 5) 4) (select |volArray@0| (- (* |i@0| 5) 4)))) (= |volArray@2| (store |volArray@1| (- (* |i@0| 5) 3) (select |volArray@1| (- (* |i@0| 5) 3)))) (= |volArray@3| (store |volArray@2| (- (* |i@0| 5) 2) (select |volArray@2| (- (* |i@0| 5) 2)))) (= |volArray@4| (store |volArray@3| (- (* |i@0| 5) 1) (select |volArray@3| (- (* |i@0| 5) 1)))) (= |i@1| (+ |i@0| 1)) (<= |i@0| |CELLCOUNT_5@0|) (not (>= 8 2)) (= |volArray@0| (store |volArray@5| (- (* |i@0| 5) 5) 0))) (!inv0 |CELLCOUNT_5@0| |volArray@4| |.volArray!size@0| |i@1|))))
(assert (forall ((volArray@5 (Array Int Int))(CELLCOUNT_5@0 Int)(volArray@0 (Array Int Int))(.volArray!size@0 Int)(i@0 Int)(j@0 Int)(volArray@1 (Array Int Int))(volArray@2 (Array Int Int))(volArray@3 (Array Int Int))(volArray@4 (Array Int Int))(j@1 Int)) (=> (and (!inv1 |CELLCOUNT_5@0| |volArray@5| |.volArray!size@0| |i@0| |j@0|) (= |volArray@1| (store |volArray@0| (- (* |j@0| 5) 5) (select |volArray@0| (- (* |j@0| 5) 5)))) (= |volArray@2| (store |volArray@1| (- (* |j@0| 5) 3) (select |volArray@1| (- (* |j@0| 5) 3)))) (= |volArray@3| (store |volArray@2| (- (* |j@0| 5) 2) (select |volArray@2| (- (* |j@0| 5) 2)))) (= |volArray@4| (store |volArray@3| (- (* |j@0| 5) 1) (select |volArray@3| (- (* |j@0| 5) 1)))) (= |j@1| (+ |j@0| 1)) (<= |j@0| |CELLCOUNT_5@0|) (>= 5 2) (= |volArray@0| (store |volArray@5| (- (* |j@0| 5) 4) 5))) (!inv1 |CELLCOUNT_5@0| |volArray@4| |.volArray!size@0| |i@0| |j@1|))))
(assert (forall ((volArray@5 (Array Int Int))(CELLCOUNT_5@0 Int)(volArray@0 (Array Int Int))(.volArray!size@0 Int)(i@0 Int)(j@0 Int)(volArray@1 (Array Int Int))(volArray@2 (Array Int Int))(volArray@3 (Array Int Int))(volArray@4 (Array Int Int))(j@1 Int)) (=> (and (!inv1 |CELLCOUNT_5@0| |volArray@5| |.volArray!size@0| |i@0| |j@0|) (= |volArray@1| (store |volArray@0| (- (* |j@0| 5) 5) (select |volArray@0| (- (* |j@0| 5) 5)))) (= |volArray@2| (store |volArray@1| (- (* |j@0| 5) 3) (select |volArray@1| (- (* |j@0| 5) 3)))) (= |volArray@3| (store |volArray@2| (- (* |j@0| 5) 2) (select |volArray@2| (- (* |j@0| 5) 2)))) (= |volArray@4| (store |volArray@3| (- (* |j@0| 5) 1) (select |volArray@3| (- (* |j@0| 5) 1)))) (= |j@1| (+ |j@0| 1)) (<= |j@0| |CELLCOUNT_5@0|) (not (>= 5 2)) (= |volArray@0| (store |volArray@5| (- (* |j@0| 5) 4) 0))) (!inv1 |CELLCOUNT_5@0| |volArray@4| |.volArray!size@0| |i@0| |j@1|))))
(assert (forall ((CELLCOUNT_5@0 Int)(volArray@0 (Array Int Int))(.volArray!size@0 Int)(i@0 Int)(j@0 Int)(k@0 Int)(l@0 Int)(m@0 Int)(volArray@1 (Array Int Int))(volArray@2 (Array Int Int))(volArray@3 (Array Int Int))(volArray@4 (Array Int Int))(m@1 Int)(volArray@5 (Array Int Int))) (=> (and (!inv4 |CELLCOUNT_5@0| |volArray@5| |.volArray!size@0| |i@0| |j@0| |k@0| |l@0| |m@0|) (= |volArray@1| (store |volArray@0| (- (* |m@0| 5) 5) (select |volArray@0| (- (* |m@0| 5) 5)))) (= |volArray@2| (store |volArray@1| (- (* |m@0| 5) 4) (select |volArray@1| (- (* |m@0| 5) 4)))) (= |volArray@3| (store |volArray@2| (- (* |m@0| 5) 3) (select |volArray@2| (- (* |m@0| 5) 3)))) (= |volArray@4| (store |volArray@3| (- (* |m@0| 5) 2) (select |volArray@3| (- (* |m@0| 5) 2)))) (= |m@1| (+ |m@0| 1)) (<= |m@0| |CELLCOUNT_5@0|) (>= 1 2) (= |volArray@0| (store |volArray@5| (- (* |m@0| 5) 1) 1))) (!inv4 |CELLCOUNT_5@0| |volArray@4| |.volArray!size@0| |i@0| |j@0| |k@0| |l@0| |m@1|))))
(assert (forall ((CELLCOUNT_5@0 Int)(volArray@0 (Array Int Int))(.volArray!size@0 Int)(i@0 Int)(j@0 Int)(k@0 Int)(l@0 Int)(m@0 Int)(volArray@1 (Array Int Int))(volArray@2 (Array Int Int))(volArray@3 (Array Int Int))(volArray@4 (Array Int Int))(m@1 Int)(volArray@5 (Array Int Int))) (=> (and (!inv4 |CELLCOUNT_5@0| |volArray@5| |.volArray!size@0| |i@0| |j@0| |k@0| |l@0| |m@0|) (= |volArray@1| (store |volArray@0| (- (* |m@0| 5) 5) (select |volArray@0| (- (* |m@0| 5) 5)))) (= |volArray@2| (store |volArray@1| (- (* |m@0| 5) 4) (select |volArray@1| (- (* |m@0| 5) 4)))) (= |volArray@3| (store |volArray@2| (- (* |m@0| 5) 3) (select |volArray@2| (- (* |m@0| 5) 3)))) (= |volArray@4| (store |volArray@3| (- (* |m@0| 5) 2) (select |volArray@3| (- (* |m@0| 5) 2)))) (= |m@1| (+ |m@0| 1)) (<= |m@0| |CELLCOUNT_5@0|) (not (>= 1 2)) (= |volArray@0| (store |volArray@5| (- (* |m@0| 5) 1) 0))) (!inv4 |CELLCOUNT_5@0| |volArray@4| |.volArray!size@0| |i@0| |j@0| |k@0| |l@0| |m@1|))))
(assert (forall ((CELLCOUNT_5@0 Int)(volArray@0 (Array Int Int))(.volArray!size@0 Int)(i@0 Int)) (=> (and (> (* 5 |CELLCOUNT_5@0|) 1) (= |.volArray!size@0| (* 5 |CELLCOUNT_5@0|)) (= |i@0| 1)) (!inv0 |CELLCOUNT_5@0| |volArray@0| |.volArray!size@0| |i@0|))))
(assert (forall ((CELLCOUNT_5@0 Int)(volArray@0 (Array Int Int))(.volArray!size@0 Int)(i@0 Int)(j@0 Int)) (=> (and (!inv0 |CELLCOUNT_5@0| |volArray@0| |.volArray!size@0| |i@0|) (not (<= |i@0| |CELLCOUNT_5@0|)) (= |j@0| 1)) (!inv1 |CELLCOUNT_5@0| |volArray@0| |.volArray!size@0| |i@0| |j@0|))))
(assert (forall ((CELLCOUNT_5@0 Int)(volArray@0 (Array Int Int))(.volArray!size@0 Int)(i@0 Int)(j@0 Int)(k@0 Int)) (=> (and (!inv1 |CELLCOUNT_5@0| |volArray@0| |.volArray!size@0| |i@0| |j@0|) (not (<= |j@0| |CELLCOUNT_5@0|)) (= |k@0| 1)) (!inv2 |CELLCOUNT_5@0| |volArray@0| |.volArray!size@0| |i@0| |j@0| |k@0|))))
(assert (forall ((CELLCOUNT_5@0 Int)(volArray@0 (Array Int Int))(.volArray!size@0 Int)(i@0 Int)(j@0 Int)(k@0 Int)(l@0 Int)) (=> (and (!inv2 |CELLCOUNT_5@0| |volArray@0| |.volArray!size@0| |i@0| |j@0| |k@0|) (not (<= |k@0| |CELLCOUNT_5@0|)) (= |l@0| 1)) (!inv3 |CELLCOUNT_5@0| |volArray@0| |.volArray!size@0| |i@0| |j@0| |k@0| |l@0|))))
(assert (forall ((CELLCOUNT_5@0 Int)(volArray@0 (Array Int Int))(.volArray!size@0 Int)(i@0 Int)(j@0 Int)(k@0 Int)(l@0 Int)(m@0 Int)) (=> (and (!inv3 |CELLCOUNT_5@0| |volArray@0| |.volArray!size@0| |i@0| |j@0| |k@0| |l@0|) (not (<= |l@0| |CELLCOUNT_5@0|)) (= |m@0| 1)) (!inv4 |CELLCOUNT_5@0| |volArray@0| |.volArray!size@0| |i@0| |j@0| |k@0| |l@0| |m@0|))))
(assert (forall ((CELLCOUNT_5@0 Int)(volArray@0 (Array Int Int))(.volArray!size@0 Int)(i@0 Int)(j@0 Int)(k@0 Int)(l@0 Int)(m@0 Int)) (=> (and (!inv4 |CELLCOUNT_5@0| |volArray@0| |.volArray!size@0| |i@0| |j@0| |k@0| |l@0| |m@0|) (not (<= |m@0| |CELLCOUNT_5@0|)) (not (forall ((n@0 Int)) (=> (and (<= 0 |n@0|) (< |n@0| (* 5 |CELLCOUNT_5@0|))) (or (>= (select |volArray@0| |n@0|) 2) (= (select |volArray@0| |n@0|) 0)))))) false)))
(assert (forall ((CELLCOUNT_5@0 Int)(volArray@0 (Array Int Int))(.volArray!size@0 Int)(i@0 Int)(j@0 Int)(k@0 Int)(l@0 Int)(volArray@1 (Array Int Int))(volArray@2 (Array Int Int))(volArray@3 (Array Int Int))(volArray@4 (Array Int Int))(l@1 Int)(volArray@5 (Array Int Int))) (=> (and (!inv3 |CELLCOUNT_5@0| |volArray@5| |.volArray!size@0| |i@0| |j@0| |k@0| |l@0|) (= |volArray@1| (store |volArray@0| (- (* |l@0| 5) 5) (select |volArray@0| (- (* |l@0| 5) 5)))) (= |volArray@2| (store |volArray@1| (- (* |l@0| 5) 4) (select |volArray@1| (- (* |l@0| 5) 4)))) (= |volArray@3| (store |volArray@2| (- (* |l@0| 5) 3) (select |volArray@2| (- (* |l@0| 5) 3)))) (= |volArray@4| (store |volArray@3| (- (* |l@0| 5) 1) (select |volArray@3| (- (* |l@0| 5) 1)))) (= |l@1| (+ |l@0| 1)) (<= |l@0| |CELLCOUNT_5@0|) (not (>= 3 2)) (= |volArray@0| (store |volArray@5| (- (* |l@0| 5) 2) 0))) (!inv3 |CELLCOUNT_5@0| |volArray@4| |.volArray!size@0| |i@0| |j@0| |k@0| |l@1|))))
(assert (forall ((CELLCOUNT_5@0 Int)(volArray@0 (Array Int Int))(.volArray!size@0 Int)(i@0 Int)(j@0 Int)(k@0 Int)(l@0 Int)(volArray@1 (Array Int Int))(volArray@2 (Array Int Int))(volArray@3 (Array Int Int))(volArray@4 (Array Int Int))(l@1 Int)(volArray@5 (Array Int Int))) (=> (and (!inv3 |CELLCOUNT_5@0| |volArray@5| |.volArray!size@0| |i@0| |j@0| |k@0| |l@0|) (= |volArray@1| (store |volArray@0| (- (* |l@0| 5) 5) (select |volArray@0| (- (* |l@0| 5) 5)))) (= |volArray@2| (store |volArray@1| (- (* |l@0| 5) 4) (select |volArray@1| (- (* |l@0| 5) 4)))) (= |volArray@3| (store |volArray@2| (- (* |l@0| 5) 3) (select |volArray@2| (- (* |l@0| 5) 3)))) (= |volArray@4| (store |volArray@3| (- (* |l@0| 5) 1) (select |volArray@3| (- (* |l@0| 5) 1)))) (= |l@1| (+ |l@0| 1)) (<= |l@0| |CELLCOUNT_5@0|) (>= 3 2) (= |volArray@0| (store |volArray@5| (- (* |l@0| 5) 2) 3))) (!inv3 |CELLCOUNT_5@0| |volArray@4| |.volArray!size@0| |i@0| |j@0| |k@0| |l@1|))))
(check-sat)